p cnf 7230 14
-1558 -3414 3862 0
1558 -3865 0
-3418 3869 0
3868 -3869 0
3418 -3868 0
3866 3867 0
3416 -3867 0
-3416 -3866 0
-3864 3865 0
-3863 3864 0
-3862 3863 0
3414 -3865 0
-3860 3861 0
3860 -3861 0
